Ideal-Spinel
 1.0000
   8.0000 0.0000 0.0000
   0.0000 8.0000 0.0000
   0.0000 0.0000 8.0000
Bi Se O
8 16 32
Direct
0.7500 0.7500 0.2500
0.5000 0.5000 0.0000
0.7500 0.2500 0.7500
0.5000 0.0000 0.5000
0.2500 0.2500 0.2500
0.2500 0.7500 0.7500
0.0000 0.0000 0.0000
0.0000 0.5000 0.5000
0.8750 0.3750 0.1250
0.8750 0.8750 0.6250
0.8750 0.1250 0.3750
0.6250 0.1250 0.1250
0.8750 0.6250 0.8750
0.6250 0.3750 0.3750
0.3750 0.8750 0.1250
0.6250 0.6250 0.6250
0.6250 0.8750 0.8750
0.3750 0.6250 0.3750
0.1250 0.6250 0.1250
0.3750 0.3750 0.6250
0.1250 0.8750 0.3750
0.3750 0.1250 0.8750
0.1250 0.1250 0.6250
0.1250 0.3750 0.8750
0.8840 0.6160 0.1160
0.8840 0.8840 0.3840
0.8660 0.1340 0.1340
0.8660 0.3660 0.3660
0.6160 0.8840 0.1160
0.8660 0.6340 0.6340
0.6340 0.3660 0.1340
0.8840 0.1160 0.6160
0.8660 0.8660 0.8660
0.8840 0.3840 0.8840
0.6160 0.6160 0.3840
0.6340 0.1340 0.3660
0.6340 0.8660 0.6340
0.3660 0.6340 0.1340
0.6160 0.3840 0.6160
0.3840 0.1160 0.1160
0.6340 0.6340 0.8660
0.3660 0.8660 0.3660
0.3840 0.3840 0.3840
0.6160 0.1160 0.8840
0.1340 0.8660 0.1340
0.3840 0.6160 0.6160
0.1160 0.3840 0.1160
0.3840 0.8840 0.8840
0.3660 0.1340 0.6340
0.1340 0.6340 0.3660
0.3660 0.3660 0.8660
0.1160 0.8840 0.6160
0.1160 0.1160 0.3840
0.1340 0.3660 0.6340
0.1160 0.6160 0.8840
0.1340 0.1340 0.8660
